s td 26 9 35
b 1 3 22
b 2 10 25
b 3 14 18
b 4 17 32
b 5 11 27
b 6 6 26 29 33
b 7 11 30
b 8 33 34
b 9 1 5 32
b 10 8 13 31
b 11 4 9 11
b 12 13 25 31
b 13 1 4 6 9 12 18 19 24 32
b 14 2 6 12 19
b 15 4 6 9 12 15 16 18 24 32
b 16 4 6 9 12 15 16 21 32
b 17 6 9 12 15 16 21 22
b 18 7 9 15 16 21 22
b 19 9 21 23 32
b 20 4 12 15 16 18 20
b 21 15 18 24 28
b 22 1 4 6 12 18 19 24 26 32
b 23 1 4 6 18 19 24 26 33
b 24 1 4 13 19 24 26 33
b 25 1 4 13 26 35
b 26 4 13 25 35
1 17
2 26
3 13
4 13
5 11
6 23
7 11
8 23
9 13
10 12
11 13
12 26
13 14
13 15
13 22
15 16
15 20
15 21
16 17
16 19
17 18
22 23
23 24
24 25
25 26
